NAME: cities_5_14
TYPE: TSP
COMMENT: Generated from CSV
DIMENSION: 5
EDGE_WEIGHT_TYPE: EUC_2D
NODE_COORD_SECTION
1 58.508850341206056 6.559733929447786
2 50.904665072120615 57.96908034227469
3 40.30159372308648 49.24418873121771
4 76.56606840332465 11.428377236993326
5 8.600962701261206 29.7705048662142
EOF
